100
128
46
20
33
56
16
5
63
5
10
40
51
9
30
4
63
21
38
30
9
3
10
18
9
18
34
51
15
1
22
31
33
21
27
1
29
63
57
13
52
34
1
43
38
24
5
48
11
59
43
22
34
20
30
5
29
37
41
60
22
10
30
32
61
4
40
38
64
24
38
43
5
63
32
5
18
62
39
24
48
52
44
12
48
4
49
9
29
32
30
5
2
49
34
47
47
33
49
43
49
28